(set-info :origin "benchmarks generated by liquid types http://goto.ucsd.edu/~rjhala/liquid/")
(set-logic HORN)
(declare-fun k_18
             (Int
              Int
              Int
              Int
              Int
              Int
              Int
              Int
              Int
              Int
              Int
              Int
              Int
              Int
              Int
              Int
              Int)
             Bool)
(declare-fun k_15
             (Int
              Int
              Int
              Int
              Int
              Int
              Int
              Int
              Int
              Int
              Int
              Int
              Int
              Int
              Int
              Int
              Int)
             Bool)
(declare-fun k_16
             (Int
              Int
              Int
              Int
              Int
              Int
              Int
              Int
              Int
              Int
              Int
              Int
              Int
              Int
              Int
              Int
              Int)
             Bool)
(declare-fun k_17
             (Int
              Int
              Int
              Int
              Int
              Int
              Int
              Int
              Int
              Int
              Int
              Int
              Int
              Int
              Int
              Int
              Int)
             Bool)
(assert (forall ((tmp_main__SSA__blk_0_1 Int)
         (tmp___0_main__SSA__blk_0_1 Int)
         (VV Int)
         (cmp_main__SSA__blk_0_1 Int)
         (tmp___1_main Int)
         (EREAD Int)
         (cmp_main Int)
         (a_main__SSA__blk_0_1 Int)
         (cmp_main__SSA__blk_7_1 Int)
         (b_main__SSA__phi_3 Int)
         (tmp___1_main__SSA__blk_4_1 Int)
         (b_main Int)
         (b_main__SSA__blk_0_1 Int)
         (a_main Int)
         (a_main__SSA__phi_3 Int)
         (tmp___0_main Int)
         (a_main__SSA__blk_7_1 Int)
         (b_main__SSA__blk_7_1 Int)
         (tmp_main Int)
         (EWRITE Int)
         (cmp_main__SSA__phi_3 Int))
  (let ((a!1 (and (= tmp_main__SSA__blk_0_1 tmp_main__SSA__blk_0_1)
                  (= tmp_main tmp_main)
                  (= tmp___1_main tmp___1_main)
                  (= tmp___0_main__SSA__blk_0_1 tmp___0_main__SSA__blk_0_1)
                  (= tmp___0_main tmp___0_main)
                  (= cmp_main__SSA__blk_7_1 cmp_main__SSA__blk_7_1)
                  (= cmp_main__SSA__blk_0_1 cmp_main__SSA__blk_0_1)
                  (= cmp_main cmp_main)
                  (= b_main__SSA__blk_7_1 b_main__SSA__blk_7_1)
                  (= b_main__SSA__blk_0_1 b_main__SSA__blk_0_1)
                  (= b_main b_main)
                  (= a_main__SSA__blk_7_1 a_main__SSA__blk_7_1)
                  (= a_main__SSA__blk_0_1 a_main__SSA__blk_0_1)
                  (= a_main a_main)
                  (= VV VV)
                  (= EWRITE EWRITE)
                  (= EREAD EREAD)
                  (= VV tmp___1_main__SSA__blk_4_1)
                  (not (= tmp___1_main__SSA__blk_4_1 0))
                  (= cmp_main__SSA__blk_7_1
                     (ite (> a_main__SSA__blk_7_1 b_main__SSA__blk_7_1) 1 0))
                  (= cmp_main__SSA__blk_0_1
                     (ite (> a_main__SSA__blk_0_1 b_main__SSA__blk_0_1) 1 0))
                  (= b_main__SSA__blk_0_1 tmp___0_main__SSA__blk_0_1)
                  (= a_main__SSA__blk_0_1 tmp_main__SSA__blk_0_1)
                  (k_16 EREAD
                        EWRITE
                        cmp_main__SSA__phi_3
                        a_main
                        a_main__SSA__blk_0_1
                        a_main__SSA__phi_3
                        b_main
                        b_main__SSA__blk_0_1
                        b_main__SSA__phi_3
                        cmp_main
                        cmp_main__SSA__blk_0_1
                        cmp_main__SSA__phi_3
                        tmp___0_main
                        tmp___0_main__SSA__blk_0_1
                        tmp___1_main
                        tmp_main
                        tmp_main__SSA__blk_0_1)
                  (k_17 EREAD
                        EWRITE
                        b_main__SSA__phi_3
                        a_main
                        a_main__SSA__blk_0_1
                        a_main__SSA__phi_3
                        b_main
                        b_main__SSA__blk_0_1
                        b_main__SSA__phi_3
                        cmp_main
                        cmp_main__SSA__blk_0_1
                        cmp_main__SSA__phi_3
                        tmp___0_main
                        tmp___0_main__SSA__blk_0_1
                        tmp___1_main
                        tmp_main
                        tmp_main__SSA__blk_0_1)
                  (k_18 EREAD
                        EWRITE
                        a_main__SSA__phi_3
                        a_main
                        a_main__SSA__blk_0_1
                        a_main__SSA__phi_3
                        b_main
                        b_main__SSA__blk_0_1
                        b_main__SSA__phi_3
                        cmp_main
                        cmp_main__SSA__blk_0_1
                        cmp_main__SSA__phi_3
                        tmp___0_main
                        tmp___0_main__SSA__blk_0_1
                        tmp___1_main
                        tmp_main
                        tmp_main__SSA__blk_0_1)
                  true)))
    (=> a!1
        (k_15 EREAD
              EWRITE
              VV
              a_main
              a_main__SSA__blk_0_1
              a_main__SSA__blk_7_1
              b_main
              b_main__SSA__blk_0_1
              b_main__SSA__blk_7_1
              cmp_main
              cmp_main__SSA__blk_0_1
              cmp_main__SSA__blk_7_1
              tmp___0_main
              tmp___0_main__SSA__blk_0_1
              tmp___1_main
              tmp_main
              tmp_main__SSA__blk_0_1)))))
(assert (forall ((cmp_main__SSA__blk_7_1 Int)
         (cmp_main Int)
         (b_main__SSA__phi_3 Int)
         (tmp___1_main Int)
         (EWRITE Int)
         (tmp_main__SSA__blk_0_1 Int)
         (VV Int)
         (EREAD Int)
         (a_main__SSA__blk_0_1 Int)
         (b_main Int)
         (tmp___0_main Int)
         (tmp___0_main__SSA__blk_0_1 Int)
         (a_main__SSA__phi_3 Int)
         (tmp___1_main__SSA__blk_4_1 Int)
         (a_main__SSA__blk_7_1 Int)
         (tmp_main Int)
         (a_main Int)
         (b_main__SSA__blk_7_1 Int)
         (cmp_main__SSA__blk_0_1 Int)
         (tmp___1_main__SSA__phi_3 Int)
         (b_main__SSA__blk_0_1 Int)
         (cmp_main__SSA__phi_3 Int))
  (let ((a!1 (and (= tmp_main__SSA__blk_0_1 tmp_main__SSA__blk_0_1)
                  (= tmp_main tmp_main)
                  (= tmp___1_main tmp___1_main)
                  (= tmp___0_main__SSA__blk_0_1 tmp___0_main__SSA__blk_0_1)
                  (= tmp___0_main tmp___0_main)
                  (= cmp_main__SSA__blk_7_1 cmp_main__SSA__blk_7_1)
                  (= cmp_main__SSA__blk_0_1 cmp_main__SSA__blk_0_1)
                  (= cmp_main cmp_main)
                  (= b_main__SSA__blk_7_1 b_main__SSA__blk_7_1)
                  (= b_main__SSA__blk_0_1 b_main__SSA__blk_0_1)
                  (= b_main b_main)
                  (= a_main__SSA__blk_7_1 a_main__SSA__blk_7_1)
                  (= a_main__SSA__blk_0_1 a_main__SSA__blk_0_1)
                  (= a_main a_main)
                  (= VV VV)
                  (= EWRITE EWRITE)
                  (= EREAD EREAD)
                  (= VV cmp_main__SSA__blk_7_1)
                  (not (= tmp___1_main__SSA__blk_4_1 0))
                  (= cmp_main__SSA__blk_7_1
                     (ite (> a_main__SSA__blk_7_1 b_main__SSA__blk_7_1) 1 0))
                  (= cmp_main__SSA__blk_0_1
                     (ite (> a_main__SSA__blk_0_1 b_main__SSA__blk_0_1) 1 0))
                  (= b_main__SSA__blk_0_1 tmp___0_main__SSA__blk_0_1)
                  (= a_main__SSA__blk_0_1 tmp_main__SSA__blk_0_1)
                  (k_15 EREAD
                        EWRITE
                        tmp___1_main__SSA__phi_3
                        a_main
                        a_main__SSA__blk_0_1
                        a_main__SSA__phi_3
                        b_main
                        b_main__SSA__blk_0_1
                        b_main__SSA__phi_3
                        cmp_main
                        cmp_main__SSA__blk_0_1
                        cmp_main__SSA__phi_3
                        tmp___0_main
                        tmp___0_main__SSA__blk_0_1
                        tmp___1_main
                        tmp_main
                        tmp_main__SSA__blk_0_1)
                  (k_16 EREAD
                        EWRITE
                        cmp_main__SSA__phi_3
                        a_main
                        a_main__SSA__blk_0_1
                        a_main__SSA__phi_3
                        b_main
                        b_main__SSA__blk_0_1
                        b_main__SSA__phi_3
                        cmp_main
                        cmp_main__SSA__blk_0_1
                        cmp_main__SSA__phi_3
                        tmp___0_main
                        tmp___0_main__SSA__blk_0_1
                        tmp___1_main
                        tmp_main
                        tmp_main__SSA__blk_0_1)
                  (k_17 EREAD
                        EWRITE
                        b_main__SSA__phi_3
                        a_main
                        a_main__SSA__blk_0_1
                        a_main__SSA__phi_3
                        b_main
                        b_main__SSA__blk_0_1
                        b_main__SSA__phi_3
                        cmp_main
                        cmp_main__SSA__blk_0_1
                        cmp_main__SSA__phi_3
                        tmp___0_main
                        tmp___0_main__SSA__blk_0_1
                        tmp___1_main
                        tmp_main
                        tmp_main__SSA__blk_0_1)
                  (k_18 EREAD
                        EWRITE
                        a_main__SSA__phi_3
                        a_main
                        a_main__SSA__blk_0_1
                        a_main__SSA__phi_3
                        b_main
                        b_main__SSA__blk_0_1
                        b_main__SSA__phi_3
                        cmp_main
                        cmp_main__SSA__blk_0_1
                        cmp_main__SSA__phi_3
                        tmp___0_main
                        tmp___0_main__SSA__blk_0_1
                        tmp___1_main
                        tmp_main
                        tmp_main__SSA__blk_0_1)
                  true)))
    (=> a!1
        (k_16 EREAD
              EWRITE
              VV
              a_main
              a_main__SSA__blk_0_1
              a_main__SSA__blk_7_1
              b_main
              b_main__SSA__blk_0_1
              b_main__SSA__blk_7_1
              cmp_main
              cmp_main__SSA__blk_0_1
              cmp_main__SSA__blk_7_1
              tmp___0_main
              tmp___0_main__SSA__blk_0_1
              tmp___1_main
              tmp_main
              tmp_main__SSA__blk_0_1)))))
(assert (forall ((cmp_main__SSA__blk_7_1 Int)
         (cmp_main Int)
         (b_main__SSA__phi_3 Int)
         (tmp___1_main Int)
         (EWRITE Int)
         (tmp_main__SSA__blk_0_1 Int)
         (VV Int)
         (EREAD Int)
         (a_main__SSA__blk_0_1 Int)
         (b_main Int)
         (tmp___0_main Int)
         (tmp___0_main__SSA__blk_0_1 Int)
         (a_main__SSA__phi_3 Int)
         (tmp___1_main__SSA__blk_4_1 Int)
         (a_main__SSA__blk_7_1 Int)
         (tmp_main Int)
         (a_main Int)
         (b_main__SSA__blk_7_1 Int)
         (cmp_main__SSA__blk_0_1 Int)
         (tmp___1_main__SSA__phi_3 Int)
         (b_main__SSA__blk_0_1 Int)
         (cmp_main__SSA__phi_3 Int))
  (let ((a!1 (and (= tmp_main__SSA__blk_0_1 tmp_main__SSA__blk_0_1)
                  (= tmp_main tmp_main)
                  (= tmp___1_main tmp___1_main)
                  (= tmp___0_main__SSA__blk_0_1 tmp___0_main__SSA__blk_0_1)
                  (= tmp___0_main tmp___0_main)
                  (= cmp_main__SSA__blk_7_1 cmp_main__SSA__blk_7_1)
                  (= cmp_main__SSA__blk_0_1 cmp_main__SSA__blk_0_1)
                  (= cmp_main cmp_main)
                  (= b_main__SSA__blk_7_1 b_main__SSA__blk_7_1)
                  (= b_main__SSA__blk_0_1 b_main__SSA__blk_0_1)
                  (= b_main b_main)
                  (= a_main__SSA__blk_7_1 a_main__SSA__blk_7_1)
                  (= a_main__SSA__blk_0_1 a_main__SSA__blk_0_1)
                  (= a_main a_main)
                  (= VV VV)
                  (= EWRITE EWRITE)
                  (= EREAD EREAD)
                  (= VV b_main__SSA__blk_7_1)
                  (not (= tmp___1_main__SSA__blk_4_1 0))
                  (= cmp_main__SSA__blk_7_1
                     (ite (> a_main__SSA__blk_7_1 b_main__SSA__blk_7_1) 1 0))
                  (= cmp_main__SSA__blk_0_1
                     (ite (> a_main__SSA__blk_0_1 b_main__SSA__blk_0_1) 1 0))
                  (= b_main__SSA__blk_0_1 tmp___0_main__SSA__blk_0_1)
                  (= a_main__SSA__blk_0_1 tmp_main__SSA__blk_0_1)
                  (k_15 EREAD
                        EWRITE
                        tmp___1_main__SSA__phi_3
                        a_main
                        a_main__SSA__blk_0_1
                        a_main__SSA__phi_3
                        b_main
                        b_main__SSA__blk_0_1
                        b_main__SSA__phi_3
                        cmp_main
                        cmp_main__SSA__blk_0_1
                        cmp_main__SSA__phi_3
                        tmp___0_main
                        tmp___0_main__SSA__blk_0_1
                        tmp___1_main
                        tmp_main
                        tmp_main__SSA__blk_0_1)
                  (k_16 EREAD
                        EWRITE
                        cmp_main__SSA__phi_3
                        a_main
                        a_main__SSA__blk_0_1
                        a_main__SSA__phi_3
                        b_main
                        b_main__SSA__blk_0_1
                        b_main__SSA__phi_3
                        cmp_main
                        cmp_main__SSA__blk_0_1
                        cmp_main__SSA__phi_3
                        tmp___0_main
                        tmp___0_main__SSA__blk_0_1
                        tmp___1_main
                        tmp_main
                        tmp_main__SSA__blk_0_1)
                  (k_17 EREAD
                        EWRITE
                        b_main__SSA__phi_3
                        a_main
                        a_main__SSA__blk_0_1
                        a_main__SSA__phi_3
                        b_main
                        b_main__SSA__blk_0_1
                        b_main__SSA__phi_3
                        cmp_main
                        cmp_main__SSA__blk_0_1
                        cmp_main__SSA__phi_3
                        tmp___0_main
                        tmp___0_main__SSA__blk_0_1
                        tmp___1_main
                        tmp_main
                        tmp_main__SSA__blk_0_1)
                  (k_18 EREAD
                        EWRITE
                        a_main__SSA__phi_3
                        a_main
                        a_main__SSA__blk_0_1
                        a_main__SSA__phi_3
                        b_main
                        b_main__SSA__blk_0_1
                        b_main__SSA__phi_3
                        cmp_main
                        cmp_main__SSA__blk_0_1
                        cmp_main__SSA__phi_3
                        tmp___0_main
                        tmp___0_main__SSA__blk_0_1
                        tmp___1_main
                        tmp_main
                        tmp_main__SSA__blk_0_1)
                  true)))
    (=> a!1
        (k_17 EREAD
              EWRITE
              VV
              a_main
              a_main__SSA__blk_0_1
              a_main__SSA__blk_7_1
              b_main
              b_main__SSA__blk_0_1
              b_main__SSA__blk_7_1
              cmp_main
              cmp_main__SSA__blk_0_1
              cmp_main__SSA__blk_7_1
              tmp___0_main
              tmp___0_main__SSA__blk_0_1
              tmp___1_main
              tmp_main
              tmp_main__SSA__blk_0_1)))))
(assert (forall ((cmp_main__SSA__blk_7_1 Int)
         (cmp_main Int)
         (b_main__SSA__phi_3 Int)
         (tmp___1_main Int)
         (EWRITE Int)
         (tmp_main__SSA__blk_0_1 Int)
         (VV Int)
         (EREAD Int)
         (a_main__SSA__blk_0_1 Int)
         (b_main Int)
         (tmp___0_main Int)
         (tmp___0_main__SSA__blk_0_1 Int)
         (a_main__SSA__phi_3 Int)
         (tmp___1_main__SSA__blk_4_1 Int)
         (a_main__SSA__blk_7_1 Int)
         (tmp_main Int)
         (a_main Int)
         (b_main__SSA__blk_7_1 Int)
         (cmp_main__SSA__blk_0_1 Int)
         (tmp___1_main__SSA__phi_3 Int)
         (b_main__SSA__blk_0_1 Int)
         (cmp_main__SSA__phi_3 Int))
  (let ((a!1 (and (= tmp_main__SSA__blk_0_1 tmp_main__SSA__blk_0_1)
                  (= tmp_main tmp_main)
                  (= tmp___1_main tmp___1_main)
                  (= tmp___0_main__SSA__blk_0_1 tmp___0_main__SSA__blk_0_1)
                  (= tmp___0_main tmp___0_main)
                  (= cmp_main__SSA__blk_7_1 cmp_main__SSA__blk_7_1)
                  (= cmp_main__SSA__blk_0_1 cmp_main__SSA__blk_0_1)
                  (= cmp_main cmp_main)
                  (= b_main__SSA__blk_7_1 b_main__SSA__blk_7_1)
                  (= b_main__SSA__blk_0_1 b_main__SSA__blk_0_1)
                  (= b_main b_main)
                  (= a_main__SSA__blk_7_1 a_main__SSA__blk_7_1)
                  (= a_main__SSA__blk_0_1 a_main__SSA__blk_0_1)
                  (= a_main a_main)
                  (= VV VV)
                  (= EWRITE EWRITE)
                  (= EREAD EREAD)
                  (= VV a_main__SSA__blk_7_1)
                  (not (= tmp___1_main__SSA__blk_4_1 0))
                  (= cmp_main__SSA__blk_7_1
                     (ite (> a_main__SSA__blk_7_1 b_main__SSA__blk_7_1) 1 0))
                  (= cmp_main__SSA__blk_0_1
                     (ite (> a_main__SSA__blk_0_1 b_main__SSA__blk_0_1) 1 0))
                  (= b_main__SSA__blk_0_1 tmp___0_main__SSA__blk_0_1)
                  (= a_main__SSA__blk_0_1 tmp_main__SSA__blk_0_1)
                  (k_15 EREAD
                        EWRITE
                        tmp___1_main__SSA__phi_3
                        a_main
                        a_main__SSA__blk_0_1
                        a_main__SSA__phi_3
                        b_main
                        b_main__SSA__blk_0_1
                        b_main__SSA__phi_3
                        cmp_main
                        cmp_main__SSA__blk_0_1
                        cmp_main__SSA__phi_3
                        tmp___0_main
                        tmp___0_main__SSA__blk_0_1
                        tmp___1_main
                        tmp_main
                        tmp_main__SSA__blk_0_1)
                  (k_16 EREAD
                        EWRITE
                        cmp_main__SSA__phi_3
                        a_main
                        a_main__SSA__blk_0_1
                        a_main__SSA__phi_3
                        b_main
                        b_main__SSA__blk_0_1
                        b_main__SSA__phi_3
                        cmp_main
                        cmp_main__SSA__blk_0_1
                        cmp_main__SSA__phi_3
                        tmp___0_main
                        tmp___0_main__SSA__blk_0_1
                        tmp___1_main
                        tmp_main
                        tmp_main__SSA__blk_0_1)
                  (k_17 EREAD
                        EWRITE
                        b_main__SSA__phi_3
                        a_main
                        a_main__SSA__blk_0_1
                        a_main__SSA__phi_3
                        b_main
                        b_main__SSA__blk_0_1
                        b_main__SSA__phi_3
                        cmp_main
                        cmp_main__SSA__blk_0_1
                        cmp_main__SSA__phi_3
                        tmp___0_main
                        tmp___0_main__SSA__blk_0_1
                        tmp___1_main
                        tmp_main
                        tmp_main__SSA__blk_0_1)
                  (k_18 EREAD
                        EWRITE
                        a_main__SSA__phi_3
                        a_main
                        a_main__SSA__blk_0_1
                        a_main__SSA__phi_3
                        b_main
                        b_main__SSA__blk_0_1
                        b_main__SSA__phi_3
                        cmp_main
                        cmp_main__SSA__blk_0_1
                        cmp_main__SSA__phi_3
                        tmp___0_main
                        tmp___0_main__SSA__blk_0_1
                        tmp___1_main
                        tmp_main
                        tmp_main__SSA__blk_0_1)
                  true)))
    (=> a!1
        (k_18 EREAD
              EWRITE
              VV
              a_main
              a_main__SSA__blk_0_1
              a_main__SSA__blk_7_1
              b_main
              b_main__SSA__blk_0_1
              b_main__SSA__blk_7_1
              cmp_main
              cmp_main__SSA__blk_0_1
              cmp_main__SSA__blk_7_1
              tmp___0_main
              tmp___0_main__SSA__blk_0_1
              tmp___1_main
              tmp_main
              tmp_main__SSA__blk_0_1)))))
(assert (forall ((tmp_main__SSA__blk_0_1 Int)
         (tmp___0_main__SSA__blk_0_1 Int)
         (VV Int)
         (tmp___1_main Int)
         (EREAD Int)
         (b_main__SSA__blk_0_1_smt_6_1 Int)
         (cmp_main Int)
         (a_main__SSA__blk_0_1 Int)
         (cmp_main__SSA__blk_0_1 Int)
         (a_main__SSA__blk_0_1_smt_6_0 Int)
         (b_main Int)
         (b_main__SSA__blk_0_1 Int)
         (cmp_main__SSA__blk_0_1_smt_6_2 Int)
         (tmp___0_main Int)
         (a_main Int)
         (tmp_main Int)
         (EWRITE Int))
  (let ((a!1 (and (= tmp_main__SSA__blk_0_1 tmp_main__SSA__blk_0_1)
                  (= tmp_main tmp_main)
                  (= tmp___1_main tmp___1_main)
                  (= tmp___0_main__SSA__blk_0_1 tmp___0_main__SSA__blk_0_1)
                  (= tmp___0_main tmp___0_main)
                  (= cmp_main__SSA__blk_0_1 cmp_main__SSA__blk_0_1_smt_6_2)
                  (= cmp_main__SSA__blk_0_1 cmp_main__SSA__blk_0_1)
                  (= cmp_main cmp_main)
                  (= b_main__SSA__blk_0_1 b_main__SSA__blk_0_1_smt_6_1)
                  (= b_main__SSA__blk_0_1 b_main__SSA__blk_0_1)
                  (= b_main b_main)
                  (= a_main__SSA__blk_0_1 a_main__SSA__blk_0_1_smt_6_0)
                  (= a_main__SSA__blk_0_1 a_main__SSA__blk_0_1)
                  (= a_main a_main)
                  (= VV VV)
                  (= EWRITE EWRITE)
                  (= EREAD EREAD)
                  (= cmp_main__SSA__blk_0_1
                     (ite (> a_main__SSA__blk_0_1 b_main__SSA__blk_0_1) 1 0))
                  (= b_main__SSA__blk_0_1 tmp___0_main__SSA__blk_0_1)
                  (= a_main__SSA__blk_0_1 tmp_main__SSA__blk_0_1)
                  true)))
    (=> a!1
        (k_15 EREAD
              EWRITE
              VV
              a_main
              a_main__SSA__blk_0_1
              a_main__SSA__blk_0_1_smt_6_0
              b_main
              b_main__SSA__blk_0_1
              b_main__SSA__blk_0_1_smt_6_1
              cmp_main
              cmp_main__SSA__blk_0_1
              cmp_main__SSA__blk_0_1_smt_6_2
              tmp___0_main
              tmp___0_main__SSA__blk_0_1
              tmp___1_main
              tmp_main
              tmp_main__SSA__blk_0_1)))))
(assert (forall ((tmp_main__SSA__blk_0_1 Int)
         (tmp___0_main__SSA__blk_0_1 Int)
         (VV Int)
         (tmp___1_main Int)
         (EREAD Int)
         (cmp_main Int)
         (a_main__SSA__blk_0_1 Int)
         (cmp_main__SSA__blk_0_1 Int)
         (cmp_main__SSA__blk_0_1_smt_5_5 Int)
         (b_main Int)
         (b_main__SSA__blk_0_1 Int)
         (a_main Int)
         (EWRITE Int)
         (tmp___0_main Int)
         (b_main__SSA__blk_0_1_smt_5_4 Int)
         (tmp_main Int)
         (a_main__SSA__blk_0_1_smt_5_3 Int))
  (let ((a!1 (and (= tmp_main__SSA__blk_0_1 tmp_main__SSA__blk_0_1)
                  (= tmp_main tmp_main)
                  (= tmp___1_main tmp___1_main)
                  (= tmp___0_main__SSA__blk_0_1 tmp___0_main__SSA__blk_0_1)
                  (= tmp___0_main tmp___0_main)
                  (= cmp_main__SSA__blk_0_1 cmp_main__SSA__blk_0_1_smt_5_5)
                  (= cmp_main__SSA__blk_0_1 cmp_main__SSA__blk_0_1)
                  (= cmp_main cmp_main)
                  (= b_main__SSA__blk_0_1 b_main__SSA__blk_0_1_smt_5_4)
                  (= b_main__SSA__blk_0_1 b_main__SSA__blk_0_1)
                  (= b_main b_main)
                  (= a_main__SSA__blk_0_1 a_main__SSA__blk_0_1_smt_5_3)
                  (= a_main__SSA__blk_0_1 a_main__SSA__blk_0_1)
                  (= a_main a_main)
                  (= VV VV)
                  (= EWRITE EWRITE)
                  (= EREAD EREAD)
                  (= VV cmp_main__SSA__blk_0_1)
                  (= cmp_main__SSA__blk_0_1
                     (ite (> a_main__SSA__blk_0_1 b_main__SSA__blk_0_1) 1 0))
                  (= b_main__SSA__blk_0_1 tmp___0_main__SSA__blk_0_1)
                  (= a_main__SSA__blk_0_1 tmp_main__SSA__blk_0_1)
                  true)))
    (=> a!1
        (k_16 EREAD
              EWRITE
              VV
              a_main
              a_main__SSA__blk_0_1
              a_main__SSA__blk_0_1_smt_5_3
              b_main
              b_main__SSA__blk_0_1
              b_main__SSA__blk_0_1_smt_5_4
              cmp_main
              cmp_main__SSA__blk_0_1
              cmp_main__SSA__blk_0_1_smt_5_5
              tmp___0_main
              tmp___0_main__SSA__blk_0_1
              tmp___1_main
              tmp_main
              tmp_main__SSA__blk_0_1)))))
(assert (forall ((tmp_main__SSA__blk_0_1 Int)
         (tmp___0_main__SSA__blk_0_1 Int)
         (VV Int)
         (b_main__SSA__blk_0_1_smt_4_7 Int)
         (tmp___1_main Int)
         (EREAD Int)
         (cmp_main Int)
         (a_main__SSA__blk_0_1 Int)
         (cmp_main__SSA__blk_0_1 Int)
         (b_main Int)
         (b_main__SSA__blk_0_1 Int)
         (a_main Int)
         (tmp___0_main Int)
         (cmp_main__SSA__blk_0_1_smt_4_8 Int)
         (a_main__SSA__blk_0_1_smt_4_6 Int)
         (tmp_main Int)
         (EWRITE Int))
  (let ((a!1 (and (= tmp_main__SSA__blk_0_1 tmp_main__SSA__blk_0_1)
                  (= tmp_main tmp_main)
                  (= tmp___1_main tmp___1_main)
                  (= tmp___0_main__SSA__blk_0_1 tmp___0_main__SSA__blk_0_1)
                  (= tmp___0_main tmp___0_main)
                  (= cmp_main__SSA__blk_0_1 cmp_main__SSA__blk_0_1_smt_4_8)
                  (= cmp_main__SSA__blk_0_1 cmp_main__SSA__blk_0_1)
                  (= cmp_main cmp_main)
                  (= b_main__SSA__blk_0_1 b_main__SSA__blk_0_1_smt_4_7)
                  (= b_main__SSA__blk_0_1 b_main__SSA__blk_0_1)
                  (= b_main b_main)
                  (= a_main__SSA__blk_0_1 a_main__SSA__blk_0_1_smt_4_6)
                  (= a_main__SSA__blk_0_1 a_main__SSA__blk_0_1)
                  (= a_main a_main)
                  (= VV VV)
                  (= EWRITE EWRITE)
                  (= EREAD EREAD)
                  (= VV b_main__SSA__blk_0_1)
                  (= cmp_main__SSA__blk_0_1
                     (ite (> a_main__SSA__blk_0_1 b_main__SSA__blk_0_1) 1 0))
                  (= b_main__SSA__blk_0_1 tmp___0_main__SSA__blk_0_1)
                  (= a_main__SSA__blk_0_1 tmp_main__SSA__blk_0_1)
                  true)))
    (=> a!1
        (k_17 EREAD
              EWRITE
              VV
              a_main
              a_main__SSA__blk_0_1
              a_main__SSA__blk_0_1_smt_4_6
              b_main
              b_main__SSA__blk_0_1
              b_main__SSA__blk_0_1_smt_4_7
              cmp_main
              cmp_main__SSA__blk_0_1
              cmp_main__SSA__blk_0_1_smt_4_8
              tmp___0_main
              tmp___0_main__SSA__blk_0_1
              tmp___1_main
              tmp_main
              tmp_main__SSA__blk_0_1)))))
(assert (forall ((tmp_main__SSA__blk_0_1 Int)
         (tmp___0_main__SSA__blk_0_1 Int)
         (VV Int)
         (tmp___1_main Int)
         (EREAD Int)
         (b_main__SSA__blk_0_1 Int)
         (cmp_main Int)
         (a_main__SSA__blk_0_1 Int)
         (cmp_main__SSA__blk_0_1 Int)
         (a_main__SSA__blk_0_1_smt_3_9 Int)
         (b_main Int)
         (cmp_main__SSA__blk_0_1_smt_3_11 Int)
         (tmp___0_main Int)
         (b_main__SSA__blk_0_1_smt_3_10 Int)
         (a_main Int)
         (tmp_main Int)
         (EWRITE Int))
  (let ((a!1 (and (= tmp_main__SSA__blk_0_1 tmp_main__SSA__blk_0_1)
                  (= tmp_main tmp_main)
                  (= tmp___1_main tmp___1_main)
                  (= tmp___0_main__SSA__blk_0_1 tmp___0_main__SSA__blk_0_1)
                  (= tmp___0_main tmp___0_main)
                  (= cmp_main__SSA__blk_0_1 cmp_main__SSA__blk_0_1_smt_3_11)
                  (= cmp_main__SSA__blk_0_1 cmp_main__SSA__blk_0_1)
                  (= cmp_main cmp_main)
                  (= b_main__SSA__blk_0_1 b_main__SSA__blk_0_1_smt_3_10)
                  (= b_main__SSA__blk_0_1 b_main__SSA__blk_0_1)
                  (= b_main b_main)
                  (= a_main__SSA__blk_0_1 a_main__SSA__blk_0_1_smt_3_9)
                  (= a_main__SSA__blk_0_1 a_main__SSA__blk_0_1)
                  (= a_main a_main)
                  (= VV VV)
                  (= EWRITE EWRITE)
                  (= EREAD EREAD)
                  (= VV a_main__SSA__blk_0_1)
                  (= cmp_main__SSA__blk_0_1
                     (ite (> a_main__SSA__blk_0_1 b_main__SSA__blk_0_1) 1 0))
                  (= b_main__SSA__blk_0_1 tmp___0_main__SSA__blk_0_1)
                  (= a_main__SSA__blk_0_1 tmp_main__SSA__blk_0_1)
                  true)))
    (=> a!1
        (k_18 EREAD
              EWRITE
              VV
              a_main
              a_main__SSA__blk_0_1
              a_main__SSA__blk_0_1_smt_3_9
              b_main
              b_main__SSA__blk_0_1
              b_main__SSA__blk_0_1_smt_3_10
              cmp_main
              cmp_main__SSA__blk_0_1
              cmp_main__SSA__blk_0_1_smt_3_11
              tmp___0_main
              tmp___0_main__SSA__blk_0_1
              tmp___1_main
              tmp_main
              tmp_main__SSA__blk_0_1)))))
(assert (forall ((tmp_main__SSA__blk_0_1 Int)
         (tmp___0_main__SSA__blk_0_1 Int)
         (VV Int)
         (a_main Int)
         (EREAD Int)
         (cmp_main Int)
         (a_main__SSA__blk_0_1 Int)
         (cmp_main__SSA__blk_0_1 Int)
         (__cil_tmp7_main Int)
         (a_main__SSA__phi_3 Int)
         (tmp___1_main__SSA__phi_3 Int)
         (tmp___1_main Int)
         (b_main Int)
         (b_main__SSA__blk_0_1 Int)
         (b_main__SSA__phi_3 Int)
         (tmp___1_main__SSA__blk_4_1 Int)
         (tmp___0_main Int)
         (tmp_main Int)
         (EWRITE Int)
         (cmp_main__SSA__phi_3 Int))
  (let ((a!1 (and (not (not (= VV 0)))
                  (k_18 EREAD
                        EWRITE
                        a_main__SSA__phi_3
                        a_main
                        a_main__SSA__blk_0_1
                        a_main__SSA__phi_3
                        b_main
                        b_main__SSA__blk_0_1
                        b_main__SSA__phi_3
                        cmp_main
                        cmp_main__SSA__blk_0_1
                        cmp_main__SSA__phi_3
                        tmp___0_main
                        tmp___0_main__SSA__blk_0_1
                        tmp___1_main
                        tmp_main
                        tmp_main__SSA__blk_0_1)
                  (k_17 EREAD
                        EWRITE
                        b_main__SSA__phi_3
                        a_main
                        a_main__SSA__blk_0_1
                        a_main__SSA__phi_3
                        b_main
                        b_main__SSA__blk_0_1
                        b_main__SSA__phi_3
                        cmp_main
                        cmp_main__SSA__blk_0_1
                        cmp_main__SSA__phi_3
                        tmp___0_main
                        tmp___0_main__SSA__blk_0_1
                        tmp___1_main
                        tmp_main
                        tmp_main__SSA__blk_0_1)
                  (k_16 EREAD
                        EWRITE
                        cmp_main__SSA__phi_3
                        a_main
                        a_main__SSA__blk_0_1
                        a_main__SSA__phi_3
                        b_main
                        b_main__SSA__blk_0_1
                        b_main__SSA__phi_3
                        cmp_main
                        cmp_main__SSA__blk_0_1
                        cmp_main__SSA__phi_3
                        tmp___0_main
                        tmp___0_main__SSA__blk_0_1
                        tmp___1_main
                        tmp_main
                        tmp_main__SSA__blk_0_1)
                  (k_15 EREAD
                        EWRITE
                        tmp___1_main__SSA__phi_3
                        a_main
                        a_main__SSA__blk_0_1
                        a_main__SSA__phi_3
                        b_main
                        b_main__SSA__blk_0_1
                        b_main__SSA__phi_3
                        cmp_main
                        cmp_main__SSA__blk_0_1
                        cmp_main__SSA__phi_3
                        tmp___0_main
                        tmp___0_main__SSA__blk_0_1
                        tmp___1_main
                        tmp_main
                        tmp_main__SSA__blk_0_1)
                  (= __cil_tmp7_main
                     (ite (> a_main__SSA__phi_3 b_main__SSA__phi_3) 1 0))
                  (= a_main__SSA__blk_0_1 tmp_main__SSA__blk_0_1)
                  (= b_main__SSA__blk_0_1 tmp___0_main__SSA__blk_0_1)
                  (= cmp_main__SSA__blk_0_1
                     (ite (> a_main__SSA__blk_0_1 b_main__SSA__blk_0_1) 1 0))
                  (not (not (= tmp___1_main__SSA__blk_4_1 0)))
                  (not (= cmp_main__SSA__phi_3 0))
                  (= VV __cil_tmp7_main)
                  true)))
    (=> a!1 false))))

(check-sat)
